\ Model Super-Permutation_0
\ LP format - for model browsing. Use MPS format to capture full model detail.
\ Signature: 0xc5a9b28763e4432b
Minimize
 
Subject To
 Eq.3a__s=(),_j=1: 1e+08 z[(),1] <= 1e+08
 Eq.3b__s=(),_j=1: z[(),1] >= 1
 Eq.3c__s=(): z[(),1] >= 1
Bounds
Binaries
 z[(),1]
End
